language ESSENCE' 1.0
letting values be [[0, 1, 4, 0, 3, 8, 6, 0, 9], [0, 7, 3, 1, 0, 9, 0, 4, 8], [8, 0, 0, 0, 2, 7, 1, 3, 5], [0, 2, 0, 3, 1, 0, 8, 9, 0], [0, 4, 0, 0, 9, 0, 0, 6, 3], [7, 0, 0, 0, 5, 6, 4, 1, 0], [4, 5, 1, 0, 7, 3, 9, 0, 0], [3, 6, 2, 9, 0, 1, 7, 5, 4], [9, 0, 0, 0, 4, 5, 0, 2, 1]]